db/inputs/2008423869237261273822742236562660430284.smt2
(set-logic QF_FP)
(declare-const x0 (_ FloatingPoint 8 24))
(declare-const x1 (_ FloatingPoint 8 24))
(declare-const x2 (_ FloatingPoint 8 24))
(declare-const x3 (_ FloatingPoint 8 24))
(declare-const x4 (_ FloatingPoint 8 24))
(declare-const x5 (_ FloatingPoint 8 24))
(declare-const x6 (_ FloatingPoint 8 24))
(declare-const x7 (_ FloatingPoint 8 24))
(declare-const x8 (_ FloatingPoint 8 24))
(declare-const x9 (_ FloatingPoint 8 24))
(declare-const x10 (_ FloatingPoint 8 24))
(declare-const x11 (_ FloatingPoint 8 24))
(declare-const x12 (_ FloatingPoint 8 24))
(declare-const x13 (_ FloatingPoint 8 24))
(declare-const x14 (_ FloatingPoint 8 24))
(declare-const x15 (_ FloatingPoint 8 24))
(declare-const x16 (_ FloatingPoint 8 24))
(declare-const x17 (_ FloatingPoint 8 24))
(declare-const x18 (_ FloatingPoint 8 24))
(assert (fp.lt (fp.mul RNE (fp.mul RNE (fp.mul RNE (fp.add RNE x4 x11) (fp.add RNE x10 x1)) (fp.sub RNE (fp.div RNE x11 x2) (fp.sub RNE x13 x4))) (fp.sub RNE (fp.neg (fp.neg x7)) (fp.sub RNE (fp.mul RNE x5 x13) (fp.add RNE x9 x16)))) (fp.sub RNE (fp.sub RNE (fp.neg (fp.mul RNE x10 x11)) (fp.sub RNE (fp.sub RNE x15 x5) (fp.add RNE x4 x0))) (fp.neg (fp.sub RNE (fp.div RNE x2 x3) (fp.mul RNE x13 x0))))))
(assert (fp.gt (fp.sub RNE (fp.neg (fp.mul RNE (fp.sub RNE x17 x17) (fp.add RNE x17 x9))) (fp.mul RNE (fp.div RNE (fp.div RNE x16 x5) (fp.div RNE x11 x18)) (fp.sub RNE (fp.sub RNE x8 x14) (fp.add RNE x11 x3)))) (fp.add RNE (fp.neg (fp.add RNE (fp.sub RNE x9 x12) (fp.sub RNE x13 x14))) (fp.neg (fp.mul RNE (fp.div RNE x9 x2) (fp.div RNE x16 x3))))))
(assert (fp.lt (fp.add RNE (fp.div RNE (fp.neg (fp.add RNE x18 x2)) (fp.neg (fp.add RNE x17 x12))) (fp.sub RNE (fp.div RNE (fp.div RNE x15 x15) (fp.neg x5)) (fp.div RNE (fp.sub RNE x12 x6) (fp.mul RNE x4 x14)))) (fp.sub RNE (fp.sub RNE (fp.add RNE (fp.add RNE x18 x6) (fp.div RNE x4 x2)) (fp.add RNE (fp.div RNE x2 x18) (fp.neg x16))) (fp.div RNE (fp.add RNE (fp.neg x3) (fp.div RNE x7 x14)) (fp.mul RNE (fp.add RNE x15 x3) (fp.sub RNE x2 x0))))))
(assert (fp.geq (fp.sub RNE (fp.add RNE (fp.sub RNE (fp.add RNE x0 x14) (fp.neg x1)) (fp.neg (fp.sub RNE x18 x13))) (fp.add RNE (fp.div RNE (fp.add RNE x1 x13) (fp.div RNE x3 x4)) (fp.add RNE (fp.add RNE x12 x17) (fp.sub RNE x5 x7)))) (fp.sub RNE (fp.mul RNE (fp.sub RNE (fp.add RNE x17 x9) (fp.add RNE x6 x3)) (fp.div RNE (fp.neg x7) (fp.mul RNE x10 x1))) (fp.neg (fp.mul RNE (fp.mul RNE x2 x0) (fp.add RNE x10 x1))))))
(check-sat)
