db/data/2008423869237261273822742236562660430284.z3.out
-------------------
2500.154953164
